Minimize
 obj: 0 X_0_1
Subject To
 out_0:
  + 1 X_0_1 + 1 X_0_2 + 1 X_0_3 + 1 X_0_4
  = 1
 in_0:
  + 1 X_1_0 + 1 X_2_0 + 1 X_3_0 + 1 X_4_0
  = 1
 out_1:
  + 1 X_1_0 + 1 X_1_2 + 1 X_1_3 + 1 X_1_4
  = 1
 in_1:
  + 1 X_0_1 + 1 X_2_1 + 1 X_3_1 + 1 X_4_1
  = 1
 out_2:
  + 1 X_2_0 + 1 X_2_1 + 1 X_2_3 + 1 X_2_4
  = 1
 in_2:
  + 1 X_0_2 + 1 X_1_2 + 1 X_3_2 + 1 X_4_2
  = 1
 out_3:
  + 1 X_3_0 + 1 X_3_1 + 1 X_3_2 + 1 X_3_4
  = 1
 in_3:
  + 1 X_0_3 + 1 X_1_3 + 1 X_2_3 + 1 X_4_3
  = 1
 out_4:
  + 1 X_4_0 + 1 X_4_1 + 1 X_4_2 + 1 X_4_3
  = 1
 in_4:
  + 1 X_0_4 + 1 X_1_4 + 1 X_2_4 + 1 X_3_4
  = 1
 mtz_1_2:
  + 1 U1 - 1 U2 + 4 X_1_2
  <= 3
 mtz_1_3:
  + 1 U1 - 1 U3 + 4 X_1_3
  <= 3
 mtz_1_4:
  + 1 U1 - 1 U4 + 4 X_1_4
  <= 3
 mtz_2_1:
  + 1 U2 - 1 U1 + 4 X_2_1
  <= 3
 mtz_2_3:
  + 1 U2 - 1 U3 + 4 X_2_3
  <= 3
 mtz_2_4:
  + 1 U2 - 1 U4 + 4 X_2_4
  <= 3
 mtz_3_1:
  + 1 U3 - 1 U1 + 4 X_3_1
  <= 3
 mtz_3_2:
  + 1 U3 - 1 U2 + 4 X_3_2
  <= 3
 mtz_3_4:
  + 1 U3 - 1 U4 + 4 X_3_4
  <= 3
 mtz_4_1:
  + 1 U4 - 1 U1 + 4 X_4_1
  <= 3
 mtz_4_2:
  + 1 U4 - 1 U2 + 4 X_4_2
  <= 3
 mtz_4_3:
  + 1 U4 - 1 U3 + 4 X_4_3
  <= 3
 obj1:
  + 313 X_0_1 + 408 X_0_2 + 596 X_0_3 + 345 X_0_4 + 313 X_1_0 + 344 X_1_2 + 593 X_1_3 + 470 X_1_4
  + 408 X_2_0 + 344 X_2_1 + 912 X_2_3 + 722 X_2_4 + 596 X_3_0 + 593 X_3_1 + 912 X_3_2 + 283 X_3_4
  + 345 X_4_0 + 470 X_4_1 + 722 X_4_2 + 283 X_4_3
  <= 1
 obj2:
  + 276 X_0_1 + 581 X_0_2 + 971 X_0_3 + 262 X_0_4 + 276 X_1_0 + 465 X_1_2 + 1107 X_1_3 + 290 X_1_4
  + 581 X_2_0 + 465 X_2_1 + 853 X_2_3 + 332 X_2_4 + 971 X_3_0 + 1107 X_3_1 + 853 X_3_2 + 816 X_3_4
  + 262 X_4_0 + 290 X_4_1 + 332 X_4_2 + 816 X_4_3
  <= 2
 obj3:
  + 470 X_0_1 + 51 X_0_2 + 887 X_0_3 + 345 X_0_4 + 470 X_1_0 + 434 X_1_2 + 555 X_1_3 + 290 X_1_4
  + 51 X_2_0 + 434 X_2_1 + 877 X_2_3 + 342 X_2_4 + 887 X_3_0 + 555 X_3_1 + 877 X_3_2 + 544 X_3_4
  + 345 X_4_0 + 290 X_4_1 + 342 X_4_2 + 544 X_4_3
  <= 3
 obj4:
  + 106 X_0_1 + 330 X_0_2 + 439 X_0_3 + 112 X_0_4 + 106 X_1_0 + 379 X_1_2 + 406 X_1_3 + 180 X_1_4
  + 330 X_2_0 + 379 X_2_1 + 309 X_2_3 + 422 X_2_4 + 439 X_3_0 + 406 X_3_1 + 309 X_3_2 + 551 X_3_4
  + 112 X_4_0 + 180 X_4_1 + 422 X_4_2 + 551 X_4_3
  <= 4
Bounds
 1 <= U1 <= 4
 1 <= U2 <= 4
 1 <= U3 <= 4
 1 <= U4 <= 4
Binary
 X_0_1
 X_0_2
 X_0_3
 X_0_4
 X_1_0
 X_1_2
 X_1_3
 X_1_4
 X_2_0
 X_2_1
 X_2_3
 X_2_4
 X_3_0
 X_3_1
 X_3_2
 X_3_4
 X_4_0
 X_4_1
 X_4_2
 X_4_3
End
